1
2,6
3
4
5
17,56
6
7
8
7,36,42
9
39,52
10
13,45,57
16
52,58
17
18
7,36,51
33,52
43,44
24,52
21
7,36,55
22
25
24
38,52
12,14
5,52
27
0,28
9,52
40,49
32
29,37
31
17,52
21,52
33
41,56
36
34
26,31
6,56
38
41
39
11,20,30
2,17
34,56
4,52
43
42
1,52
46
47
48
3,52
51,56
19,35
10,52
20,44,49
47,52
15,52
50
32,57
23,54
53
55
51
27,56
58
25,52
